%chk=aspirin.chk
#p B3LYP/6-31G(d) Opt Freq

Aspirin geometry optimization and frequency analysis

0 1
C     0.000  1.402  0.000
C     1.214  0.701  0.000
C     1.214 -0.701  0.000
C     0.000 -1.402  0.000
C    -1.214 -0.701  0.000
C    -1.214  0.701  0.000
O    -2.358  1.224  0.000
H     0.000  2.490  0.000
H     2.156  1.245  0.000
...
